proyfinal/src/viki/013/andrea/andrea-localstore/experimentInOfficeAgust.take6/worker_2/505a4229-db61-448e-b496-4dc2c4c48b2d.als.cnf.out
Reading from standard input... Use '--help' for help.
============================[ Problem Statistics ]=============================
|                                                                             |
|  Number of variables:         87638                                         |
|  Number of clauses:          161767                                         |
|  Parse time:                   0.04 s                                       |
|                                                                             |
============================[ Search Statistics ]==============================
| Conflicts |          ORIGINAL         |          LEARNT          | Progress |
|           |    Vars  Clauses Literals |    Limit  Clauses Lit/Cl |          |
===============================================================================
|       100 |   63627   109713   274422 |    40228      100     10 | 27.398 % |
|       250 |   63627   109713   274422 |    44250      250     90 | 27.398 % |
|       475 |   63627   109713   274422 |    48676      475    127 | 27.398 % |
|       812 |   63627   109713   274422 |    53543      812    109 | 27.398 % |
|      1318 |   44085   109669   274332 |    58897     1314    112 | 49.696 % |
|      2077 |   44085    51247   130647 |    64787     2050     80 | 49.696 % |
|      3216 |   44077    51206   130537 |    71266     3016     62 | 49.706 % |
===============================================================================
restarts              : 16
conflicts             : 3266           (9833 /sec)
decisions             : 12625          (0.00 % random) (38009 /sec)
propagations          : 4357275        (13118119 /sec)
conflict literals     : 194880         (24.56 % deleted)
Memory used           : 25.41 MB
CPU time              : 0.332157 s

UNSATISFIABLE
